p wcnf 128 64 65 
1 -68 48 0 
1 1 6 0 
1 -11 -109 0 
1 11 77 0 
1 77 21 0 
1 -80 36 0 
1 41 57 0 
1 79 33 0 
1 8 -71 0 
1 -71 83 0 
1 -74 -103 0 
1 -105 -58 0 
1 49 80 0 
1 -6 46 0 
1 123 113 0 
1 101 44 0 
1 -18 109 0 
1 -44 -117 0 
1 -117 88 0 
1 57 46 0 
1 74 -47 0 
1 69 -118 0 
1 95 124 0 
1 125 79 0 
1 -94 61 0 
1 27 -31 0 
1 17 31 0 
1 34 -95 0 
1 6 68 0 
1 -32 -127 0 
1 -89 8 0 
1 111 17 0 
1 -115 47 0 
1 103 120 0 
1 119 112 0 
1 -90 -102 0 
1 -105 74 0 
1 14 -95 0 
1 61 -5 0 
1 31 -117 0 
1 -63 -13 0 
1 -83 81 0 
1 -56 -95 0 
1 39 -105 0 
1 -121 -119 0 
1 83 8 0 
1 124 90 0 
1 87 9 0 
1 -103 76 0 
1 -41 35 0 
1 -118 97 0 
1 -126 -95 0 
1 -39 -40 0 
1 75 124 0 
1 57 -86 0 
1 -86 91 0 
1 -72 49 0 
1 -46 -44 0 
1 -24 -97 0 
1 -43 -118 0 
1 41 -9 0 
1 -58 -74 0 
1 -95 -34 0 
1 -77 -45 0 
